OBJ 34062374.0
9 10
10 22
22 14
22 2
13 21
21 19
21 4
19 14
23 24
23 4
24 15
24 7
2 25
25 30
30 29
30 31
29 18
1 32
32 31
32 5
28 3
28 8
7 27
27 17
27 6
8 36
34 36
34 11
18 33
33 35
33 20
35 11
35 12
36 16
